Figure: small_1
File Number: 21
Nodes: 11
Edges: 20
Max Generations: 1000
Population Size: 100
Mutation Rate: 0.01
Colors Used: 4
Runtime: 0.00

Generation,Average Fitness,Best Fitness
0,6.52,1
1,5.71,1
2,5.01,1
3,4.9,1
4,4.81,1
5,4.45,1
6,3.7,1
7,2.89,1
8,2.49,1
9,2.27,1
10,1.7,1
11,1.37,1
12,1.23,1
13,1.14,1
14,1.08,1
15,1.04,1
16,1.19,1
17,1.09,1
18,1.19,1
19,1.14,1
20,1.09,1
21,1.1,1
22,1.14,1
23,1.17,1
24,1.13,1
25,1.22,1
26,1.07,1
27,1.17,1
28,1.18,1
29,1.24,1
30,1.11,1
31,1.1,1
32,1.11,1
33,1.08,1
34,1.12,1
35,1.07,1
36,1.07,1
37,1.14,1
38,1.06,1
39,1.13,1
40,1.25,1
41,1.15,1
42,1.15,1
43,1.14,1
44,1.02,1
45,1.11,1
46,1.18,1
47,1.05,1
48,1.2,1
49,1.14,1
50,1.1,1
51,1.08,1
52,1.12,1
53,1.17,1
54,1.01,1
55,1.06,1
56,1.24,1
57,1.08,1
58,1.17,1
59,1.04,1
60,1.16,1
61,1.1,1
62,1.11,1
63,1.1,1
64,1.14,1
65,1.06,1
66,1.03,1
67,1.11,1
68,1.06,1
69,1.04,1
70,1.16,1
71,1.11,1
72,1.13,1
73,1.11,1
74,1.13,1
75,1.18,1
76,1.07,1
77,1.08,1
78,1.24,1
79,1.15,1
80,1.08,1
81,1.1,1
82,1.09,1
83,1.04,1
84,1.07,1
85,1.06,1
86,1.19,1
87,1.12,1
88,1.16,1
89,1.08,1
90,1.1,1
91,1.16,1
92,1.1,1
93,1.16,1
94,1.09,1
95,1.08,1
96,1.1,1
97,1.03,1
98,1.29,1
99,1.07,1
100,1.07,1
101,1.04,1
102,1.01,1
103,1.21,1
104,1.21,1
105,1.17,1
106,1.18,1
107,1.14,1
108,1.09,1
109,1.19,1
110,1.17,1
111,1.06,1
112,1.04,1
113,1.05,1
114,1.09,1
115,1.14,1
116,1.09,1
117,1.05,1
118,1.08,1
119,1.18,1
120,1.11,1
121,1.12,1
122,1.18,1
123,1.1,1
124,1.16,1
125,1.12,1
126,1.11,1
127,1.09,1
128,1.11,1
129,1.28,1
130,1.12,1
131,1.11,1
132,1.1,1
133,1.08,1
134,1.08,1
135,1.06,1
136,1.12,1
137,1.07,1
138,1.13,1
139,1.07,1
140,1.13,1
141,1.06,1
142,1.12,1
143,1.04,1
144,1.11,1
145,1.06,1
146,1.08,1
147,1.13,1
148,1.07,1
149,1.2,1
150,1.14,1
151,1.08,1
152,1.1,1
153,1.17,1
154,1.06,1
155,1.11,1
156,1.2,1
157,1.1,1
158,1.17,1
159,1.08,1
160,1.17,1
161,1.11,1
162,1.02,1
163,1.1,1
164,1.06,1
165,1.11,1
166,1.14,1
167,1.12,1
168,1.18,1
169,1.07,1
170,1.14,1
171,1.07,1
172,1.1,1
173,1.1,1
174,1.05,1
175,1.16,1
176,1.09,1
177,1.07,1
178,1.11,1
179,1.12,1
180,1.03,1
181,1.13,1
182,1.15,1
183,1.07,1
184,1.11,1
185,1.06,1
186,1.23,1
187,1.16,1
188,1.15,1
189,1.14,1
190,1.17,1
191,1.08,1
192,1.14,1
193,1.08,1
194,1.06,1
195,1.09,1
196,1.11,1
197,1.08,1
198,1.08,1
199,1.08,1
200,1.18,1
201,1.1,1
202,1.13,1
203,1.08,1
204,1.06,1
205,1.07,1
206,1.03,1
207,1.04,1
208,1.08,1
209,1.13,1
210,1.08,1
211,1.07,1
212,1.26,1
213,1.16,1
214,1.1,1
215,1.1,1
216,1.11,1
217,1.09,1
218,1.12,1
219,1.1,1
220,1.13,1
221,1.08,1
222,1.13,1
223,1.08,1
224,1.12,1
225,1.07,1
226,1.2,1
227,1.08,1
228,1.08,1
229,1.17,1
230,1.16,1
231,1.11,1
232,1.09,1
233,1.2,1
234,1.15,1
235,1.22,1
236,1.07,1
237,1.1,1
238,1.11,1
239,1.08,1
240,1.16,1
241,1.17,1
242,1.09,1
243,1.14,1
244,1.16,1
245,1.12,1
246,1.22,1
247,1.16,1
248,1.13,1
249,1.13,1
250,1.19,1
251,1.09,1
252,1.22,1
253,1.14,1
254,1.05,1
255,1.16,1
256,1.08,1
257,1.17,1
258,1.1,1
259,1.1,1
260,1.16,1
261,1.13,1
262,1.11,1
263,1.11,1
264,1.24,1
265,1.15,1
266,1.14,1
267,1.1,1
268,1.12,1
269,1.14,1
270,1.14,1
271,1.07,1
272,1.07,1
273,1.07,1
274,1.18,1
275,1.17,1
276,1.14,1
277,1.1,1
278,1.16,1
279,1.23,1
280,1.17,1
281,1.15,1
282,1.18,1
283,1.13,1
284,1.06,1
285,1.14,1
286,1.11,1
287,1.06,1
288,1.09,1
289,1.13,1
290,1.13,1
291,1.14,1
292,1.31,1
293,1.16,1
294,1.15,1
295,1.06,1
296,1.05,1
297,1.13,1
298,1.07,1
299,1.07,1
300,1.16,1
301,1.12,1
302,1.08,1
303,1.09,1
304,1.03,1
305,1.1,1
306,1.04,1
307,1.09,1
308,1.12,1
309,1.07,1
310,1.07,1
311,1.21,1
312,1.2,1
313,1.06,1
314,1.07,1
315,1.08,1
316,1.09,1
317,1.14,1
318,1.11,1
319,1.02,1
320,1.1,1
321,1.19,1
322,1.12,1
323,1.17,1
324,1.09,1
325,1.09,1
326,1.06,1
327,1.2,1
328,1.12,1
329,1.17,1
330,1.13,1
331,1.12,1
332,1.13,1
333,1.11,1
334,1.18,1
335,1.14,1
336,1.13,1
337,1.13,1
338,1.22,1
339,1.18,1
340,1.14,1
341,1.13,1
342,1.16,1
343,1.15,1
344,1.15,1
345,1.18,1
346,1.08,1
347,1.22,1
348,1.11,1
349,1.09,1
350,1.15,1
351,1.08,1
352,1.18,1
353,1.21,1
354,1.14,1
355,1.03,1
356,1.14,1
357,1.19,1
358,1.11,1
359,1.2,1
360,1.26,1
361,1.19,1
362,1.06,1
363,1.03,1
364,1.11,1
365,1.1,1
366,1.16,1
367,1.1,1
368,1.11,1
369,1.14,1
370,1.05,1
371,1.12,1
372,1.15,1
373,1.25,1
374,1.18,1
375,1.16,1
376,1.1,1
377,1.1,1
378,1.16,1
379,1.07,1
380,1.14,1
381,1.15,1
382,1.18,1
383,1.12,1
384,1.08,1
385,1.08,1
386,1.08,1
387,1.1,1
388,1.07,1
389,1.05,1
390,1.19,1
391,1.05,1
392,1.07,1
393,1.15,1
394,1.11,1
395,1.12,1
396,1.07,1
397,1.15,1
398,1.12,1
399,1.16,1
400,1.14,1
401,1.17,1
402,1.12,1
403,1.18,1
404,1.05,1
405,1.1,1
406,1.14,1
407,1.13,1
408,1.04,1
409,1.11,1
410,1.17,1
411,1.13,1
412,1.01,1
413,1.01,1
414,1.2,1
415,1.12,1
416,1.17,1
417,1.09,1
418,1.12,1
419,1.13,1
420,1.09,1
421,1.1,1
422,1.08,1
423,1.14,1
424,1.16,1
425,1.06,1
426,1.04,1
427,1.06,1
428,1.18,1
429,1.15,1
430,1.09,1
431,1.11,1
432,1.12,1
433,1.13,1
434,1.12,1
435,1.12,1
436,1.1,1
437,1.06,1
438,1.1,1
439,1.11,1
440,1.06,1
441,1.04,1
442,1.12,1
443,1.17,1
444,1.13,1
445,1.11,1
446,1.08,1
447,1.03,1
448,1.15,1
449,1.25,1
450,1.25,1
451,1.14,1
452,1.1,1
453,1.06,1
454,1.26,1
455,1.1,1
456,1.17,1
457,1.18,1
458,1.06,1
459,1.18,1
460,1.26,1
461,1.12,1
462,1.25,1
463,1.22,1
464,1.15,1
465,1.11,1
466,1.13,1
467,1.08,1
468,1.14,1
469,1.27,1
470,1.12,1
471,1.12,1
472,1.08,1
473,1.11,1
474,1.17,1
475,1.16,1
476,1.12,1
477,1.19,1
478,1.24,1
479,1.23,1
480,1.15,1
481,1.09,1
482,1.07,1
483,1.1,1
484,1.08,1
485,1.19,1
486,1.12,1
487,1.13,1
488,1.06,1
489,1.27,1
490,1.15,1
491,1.24,1
492,1.12,1
493,1.24,1
494,1.09,1
495,1.0,1
496,1.14,1
497,1.12,1
498,1.16,1
499,1.12,1
500,1.17,1
501,1.07,1
502,1.26,1
503,1.07,1
504,1.17,1
505,1.14,1
506,1.06,1
507,1.15,1
508,1.15,1
509,1.14,1
510,1.13,1
511,1.14,1
512,1.17,1
513,1.12,1
514,1.11,1
515,1.19,1
516,1.11,1
517,1.13,1
518,1.03,1
519,1.15,1
520,1.08,1
521,1.14,1
522,1.11,1
523,1.17,1
524,1.17,1
525,1.06,1
526,1.03,1
527,1.17,1
528,1.19,1
529,1.18,1
530,1.1,1
531,1.08,1
532,1.13,1
533,1.21,1
534,1.2,1
535,1.15,1
536,1.14,1
537,1.1,1
538,1.12,1
539,1.11,1
540,1.08,1
541,1.14,1
542,1.18,1
543,1.15,1
544,1.11,1
545,1.08,1
546,1.16,1
547,1.03,1
548,1.05,1
549,1.14,1
550,1.13,1
551,1.15,1
552,1.09,1
553,1.16,1
554,1.12,1
555,1.19,1
556,1.12,1
557,1.15,1
558,1.1,1
559,1.08,1
560,1.13,1
561,1.11,1
562,1.16,1
563,1.21,1
564,1.17,1
565,1.12,1
566,1.15,1
567,1.16,1
568,1.15,1
569,1.07,1
570,1.14,1
571,1.24,1
572,1.1,1
573,1.18,1
574,1.16,1
575,1.1,1
576,1.17,1
577,1.05,1
578,1.07,1
579,1.07,1
580,1.17,1
581,1.13,1
582,1.06,1
583,1.11,1
584,1.2,1
585,1.14,1
586,1.22,1
587,1.08,1
588,1.18,1
589,1.19,1
590,1.08,1
591,1.08,1
592,1.07,1
593,1.17,1
594,1.09,1
595,1.16,1
596,1.11,1
597,1.05,1
598,1.13,1
599,1.13,1
600,1.05,1
601,1.18,1
602,1.12,1
603,1.18,1
604,1.12,1
605,1.13,1
606,1.12,1
607,1.15,1
608,1.09,1
609,1.16,1
610,1.23,1
611,1.04,1
612,1.12,1
613,1.16,1
614,1.12,1
615,1.08,1
616,1.06,1
617,1.14,1
618,1.14,1
619,1.17,1
620,1.08,1
621,1.13,1
622,1.14,1
623,1.15,1
624,1.11,1
625,1.11,1
626,1.15,1
627,1.09,1
628,1.07,1
629,1.19,1
630,1.14,1
631,1.12,1
632,1.1,1
633,1.18,1
634,1.14,1
635,1.09,1
636,1.23,1
637,1.19,1
638,1.1,1
639,1.09,1
640,1.12,1
641,1.17,1
642,1.09,1
643,1.09,1
644,1.1,1
645,1.22,1
646,1.12,1
647,1.12,1
648,1.14,1
649,1.02,1
650,1.01,1
651,1.14,1
652,1.05,1
653,1.13,1
654,1.17,1
655,1.09,1
656,1.13,1
657,1.1,1
658,1.18,1
659,1.05,1
660,1.04,1
661,1.13,1
662,1.1,1
663,1.08,1
664,1.17,1
665,1.1,1
666,1.19,1
667,1.13,1
668,1.15,1
669,1.03,1
670,1.13,1
671,1.2,1
672,1.07,1
673,1.06,1
674,1.07,1
675,1.03,1
676,1.05,1
677,1.14,1
678,1.13,1
679,1.2,1
680,1.06,1
681,1.1,1
682,1.09,1
683,1.1,1
684,1.15,1
685,1.09,1
686,1.08,1
687,1.09,1
688,1.07,1
689,1.07,1
690,1.06,1
691,1.11,1
692,1.22,1
693,1.09,1
694,1.21,1
695,1.11,1
696,1.1,1
697,1.14,1
698,1.13,1
699,1.13,1
700,1.07,1
701,1.12,1
702,1.11,1
703,1.15,1
704,1.2,1
705,1.17,1
706,1.1,1
707,1.15,1
708,1.06,1
709,1.15,1
710,1.21,1
711,1.11,1
712,1.18,1
713,1.14,1
714,1.08,1
715,1.12,1
716,1.05,1
717,1.11,1
718,1.18,1
719,1.07,1
720,1.19,1
721,1.12,1
722,1.22,1
723,1.04,1
724,1.17,1
725,1.15,1
726,1.13,1
727,1.13,1
728,1.04,1
729,1.12,1
730,1.15,1
731,1.05,1
732,1.11,1
733,1.04,1
734,1.11,1
735,1.01,1
736,1.12,1
737,1.2,1
738,1.13,1
739,1.17,1
740,1.13,1
741,1.06,1
742,1.08,1
743,1.13,1
744,1.08,1
745,1.2,1
746,1.25,1
747,1.12,1
748,1.06,1
749,1.13,1
750,1.09,1
751,1.19,1
752,1.17,1
753,1.13,1
754,1.13,1
755,1.13,1
756,1.05,1
757,1.17,1
758,1.13,1
759,1.09,1
760,1.12,1
761,1.25,1
762,1.05,1
763,1.3,1
764,1.13,1
765,1.12,1
766,1.13,1
767,1.07,1
768,1.03,1
769,1.1,1
770,1.15,1
771,1.17,1
772,1.14,1
773,1.14,1
774,1.11,1
775,1.11,1
776,1.11,1
777,1.09,1
778,1.09,1
779,1.12,1
780,1.21,1
781,1.15,1
782,1.09,1
783,1.13,1
784,1.11,1
785,1.12,1
786,1.1,1
787,1.12,1
788,1.21,1
789,1.14,1
790,1.11,1
791,1.13,1
792,1.1,1
793,1.12,1
794,1.19,1
795,1.14,1
796,1.12,1
797,1.09,1
798,1.12,1
799,1.07,1
800,1.29,1
801,1.14,1
802,1.12,1
803,1.13,1
804,1.2,1
805,1.23,1
806,1.11,1
807,1.1,1
808,1.18,1
809,1.2,1
810,1.23,1
811,1.16,1
812,1.19,1
813,1.15,1
814,1.13,1
815,1.13,1
816,1.19,1
817,1.06,1
818,1.09,1
819,1.1,1
820,1.09,1
821,1.13,1
822,1.12,1
823,1.13,1
824,1.13,1
825,1.18,1
826,1.1,1
827,1.07,1
828,1.15,1
829,1.06,1
830,1.05,1
831,1.11,1
832,1.14,1
833,1.12,1
834,1.07,1
835,1.23,1
836,1.08,1
837,1.07,1
838,1.13,1
839,1.1,1
840,1.11,1
841,1.16,1
842,1.19,1
843,1.07,1
844,1.08,1
845,1.08,1
846,1.09,1
847,1.27,1
848,1.04,1
849,1.09,1
850,1.1,1
851,1.1,1
852,1.12,1
853,1.11,1
854,1.09,1
855,1.12,1
856,1.12,1
857,1.05,1
858,1.14,1
859,1.02,1
860,1.05,1
861,1.1,1
862,1.15,1
863,1.11,1
864,1.14,1
865,1.03,1
866,1.13,1
867,1.13,1
868,1.05,1
869,1.11,1
870,1.03,1
871,1.14,1
872,1.16,1
873,1.13,1
874,1.08,1
875,1.19,1
876,1.12,1
877,1.12,1
878,1.1,1
879,1.06,1
880,1.11,1
881,1.13,1
882,1.05,1
883,1.1,1
884,1.11,1
885,1.11,1
886,1.22,1
887,1.2,1
888,1.1,1
889,1.11,1
890,1.15,1
891,1.14,1
892,1.13,1
893,1.03,1
894,1.19,1
895,1.17,1
896,1.01,1
897,1.15,1
898,1.12,1
899,1.1,1
900,1.15,1
901,1.11,1
902,1.14,1
903,1.15,1
904,1.08,1
905,1.1,1
906,1.07,1
907,1.1,1
908,1.12,1
909,1.07,1
910,1.13,1
911,1.15,1
912,1.18,1
913,1.05,1
914,1.1,1
915,1.31,1
916,1.15,1
917,1.09,1
918,1.13,1
919,1.15,1
920,1.08,1
921,1.13,1
922,1.17,1
923,1.23,1
924,1.09,1
925,1.21,1
926,1.13,1
927,1.14,1
928,1.13,1
929,1.1,1
930,1.21,1
931,1.19,1
932,1.16,1
933,1.1,1
934,1.09,1
935,1.06,1
936,1.09,1
937,1.12,1
938,1.21,1
939,1.11,1
940,1.11,1
941,1.13,1
942,1.2,1
943,1.05,1
944,1.08,1
945,1.13,1
946,1.06,1
947,1.17,1
948,1.26,1
949,1.22,1
950,1.14,1
951,1.2,1
952,1.25,1
953,1.25,1
954,1.14,1
955,1.14,1
956,1.18,1
957,1.25,1
958,1.05,1
959,1.1,1
960,1.09,1
961,1.15,1
962,1.1,1
963,1.13,1
964,1.07,1
965,1.11,1
966,1.11,1
967,1.15,1
968,1.12,1
969,1.12,1
970,1.15,1
971,1.11,1
972,1.07,1
973,1.17,1
974,1.23,1
975,1.13,1
976,1.14,1
977,1.04,1
978,1.14,1
979,1.08,1
980,1.06,1
981,1.09,1
982,1.19,1
983,1.15,1
984,1.05,1
985,1.08,1
986,1.13,1
987,1.1,1
988,1.1,1
989,1.09,1
990,1.12,1
991,1.27,1
992,1.12,1
993,1.08,1
994,1.16,1
995,1.14,1
996,1.12,1
997,1.07,1
998,1.06,1
999,1.05,1
